60 61 63 62 79 80 81 57 82 85 86 87 90 89 88 78 77 76 64 75 74 73 119 118 120 121 117 122 123 71 72 65 66 67 68 70 69 124 125 126 127 128 116 115 129 130 131 132 133 134 135 136 137 138 139 140 141 151 150 149 152 148 147 142 143 144 146 145 158 157 153 155 156 159 160 154 164 165 203 204 202 201 200 199 198 166 167 163 168 162 161 113 112 114 111 110 109 108 173 174 175 172 170 171 169 180 181 179 182 183 185 184 194 195 196 197 205 206 207 208 209 210 211 212 213 214 215 216 217 223 224 222 221 220 218 219 193 192 191 190 226 225 189 228 230 229 227 186 188 187 178 177 176 540 538 539 537 536 484 485 486 487 535 534 488 489 532 533 231 531 530 233 232 234 235 236 237 509 510 511 513 512 527 528 529 490 491 492 493 524 525 526 523 522 514 515 516 517 520 521 494 495 518 519 497 496 470 471 472 473 474 469 468 467 466 465 464 463 462 461 452 453 499 500 501 498 502 503 504 505 506 507 508 302 301 303 304 307 308 309 310 311 451 450 441 440 442 449 448 447 446 443 444 445 381 380 379 378 377 315 314 316 312 313 305 306 318 317 319 320 321 297 298 299 300 241 242 243 240 239 238 246 247 245 244 248 249 250 251 252 254 253 255 256 257 258 259 260 261 262 263 264 265 266 267 268 271 272 269 270 296 295 294 293 291 292 273 274 275 290 289 288 276 277 278 279 282 281 280 287 286 285 284 283 334 335 336 337 338 339 333 332 331 330 340 341 342 343 344 345 346 364 363 362 347 348 349 350 351 415 416 414 413 352 353 354 355 357 358 359 361 360 401 400 399 398 397 394 395 396 371 372 370 369 368 365 367 366 329 328 327 326 325 324 323 322 373 374 375 376 393 391 392 390 389 388 387 386 382 383 384 385 409 408 407 406 405 404 403 402 356 412 411 410 418 417 419 420 421 422 423 424 425 426 427 428 429 431 430 432 433 434 435 436 437 438 439 454 455 456 457 458 459 460 571 572 573 0 1 2 3 4 5 6 7 8 9 10 11 14 15 16 17 18 19 20 568 569 570 567 475 482 483 481 476 480 479 477 478 545 546 547 544 543 541 542 107 106 105 104 103 102 100 101 551 550 548 549 564 566 565 563 562 561 560 559 558 557 556 554 553 552 99 98 96 95 97 94 93 92 91 555 46 45 44 41 40 35 34 33 32 30 29 28 27 26 25 24 21 13 12 23 22 31 36 37 38 39 42 43 47 48 49 54 52 50 51 84 83 53 55 56 58 59